c This Formular was created for testing purposes
c
c    horn? no
c    forced? no
c    mixed sat? no
c    clause length = 3
c
p cnf
1	-15	17
16	12	14
7	13	11
10	16	20
2	14	6
14	19	10
5	6	3
15	9	-19
10	16	18
4	-7	8
%
0
